Instance name : SB_bar-n100-6
Authors : 
Date : 
Reference 
Solution
Route 1 : 22 43 72 16 93 41 66 37 91 30 4 87 54 5 17 2 67 45 95 80 8 55 35 14 85 64 10 58 52 60 24 50 46 100 96 74 
Route 2 : 31 32 82 81 25 38 40 88 15 75 18 90 68 65 7 57 28 19 13 69 23 73 26 27 77 78 49 63 76 39 99 89 33 83 
Route 3 : 20 29 34 79 47 70 84 97 9 11 3 59 61 53 
Route 4 : 1 48 51 12 62 21 42 71 6 92 44 98 56 36 94 86 
